data;
param nombreJob := 7;
param nombreRessource := 3;
param duree := 1 6 2 5 3 3 4 5 5 6 6 4 7 2;
param capaciteRessource := 1 5 2 14 3 12;
param besoinRessource : 1 2 3 :=
                    1   3 6 3
                    2   2 8 7
                    3   3 7 7
                    4   4 6 6
                    5   1 2 2
                    6   1 3 1
                    7   1 7 9;
end;

